c ! encoding i-pc 250
p cnf 838 2103
-251 0
181 -252 0
245 -253 0
251 -254 0
251 -255 0
-227 -257 0
256 -257 0
257 -258 0
241 -258 0
-227 -259 0
155 -259 0
260 0
261 -262 0
262 -263 0
-155 -263 0
259 263 -264 0
264 -265 0
-241 -265 0
258 265 -266 0
266 -267 0
93 -267 0
256 -269 0
268 -269 0
-227 -270 0
269 -270 0
270 -271 0
-93 -271 0
267 271 -272 0
125 -273 0
-224 -273 0
273 -274 0
215 -274 0
275 -277 0
276 -277 0
277 -278 0
-215 -278 0
274 278 -279 0
279 -280 0
234 -280 0
-224 -281 0
215 -281 0
275 -282 0
282 -283 0
-215 -283 0
281 283 -284 0
284 -285 0
125 -285 0
285 -286 0
-234 -286 0
280 286 -287 0
123 -288 0
174 -288 0
289 -291 0
290 -291 0
272 -292 0
287 -292 0
288 -292 0
291 -292 0
292 -294 0
293 -294 0
294 -295 0
142 -295 0
296 -297 0
297 -298 0
111 -298 0
-111 -299 0
298 299 -300 0
273 -302 0
301 -302 0
302 -303 0
215 -303 0
275 -304 0
304 -305 0
123 -305 0
-224 -306 0
-123 -306 0
305 306 -307 0
307 -308 0
276 -308 0
308 -309 0
-215 -309 0
303 309 -310 0
310 -311 0
234 -311 0
-224 -312 0
301 -312 0
312 -313 0
215 -313 0
307 -314 0
-215 -314 0
313 314 -315 0
315 -316 0
125 -316 0
316 -317 0
-234 -317 0
311 317 -318 0
290 -319 0
319 -320 0
174 -320 0
156 -321 0
-174 -321 0
320 321 -322 0
93 -323 0
-153 -323 0
300 -324 0
266 -324 0
318 -324 0
322 -324 0
323 -324 0
324 -325 0
-142 -325 0
295 325 -326 0
-78 -328 0
327 -328 0
328 -329 0
233 -329 0
207 -330 0
78 -330 0
327 -331 0
331 -332 0
-78 -332 0
330 332 -333 0
333 -334 0
-233 -334 0
329 334 -335 0
2 -336 0
7 -336 0
10 -336 0
-17 -336 0
-23 -336 0
25 -336 0
-40 -336 0
-45 -336 0
-46 -336 0
47 -336 0
55 -336 0
-58 -336 0
-69 -336 0
72 -336 0
-75 -336 0
76 -336 0
-79 -336 0
-82 -336 0
86 -336 0
-91 -336 0
94 -336 0
95 -336 0
96 -336 0
-100 -336 0
102 -336 0
-105 -336 0
106 -336 0
124 -336 0
131 -336 0
139 -336 0
-145 -336 0
152 -336 0
-170 -336 0
-175 -336 0
-179 -336 0
-188 -336 0
196 -336 0
197 -336 0
-213 -336 0
-217 -336 0
-221 -336 0
222 -336 0
238 -336 0
239 -336 0
337 -343 0
338 -343 0
339 -343 0
340 -343 0
341 -343 0
342 -343 0
326 -344 0
335 -344 0
336 -344 0
343 -344 0
344 -345 0
19 -345 0
142 -346 0
174 -346 0
346 -347 0
290 -347 0
347 -348 0
153 -348 0
174 -349 0
290 -349 0
349 -350 0
142 -350 0
322 -351 0
-142 -351 0
350 351 -352 0
352 -353 0
-153 -353 0
348 353 -354 0
354 -355 0
266 -355 0
355 -356 0
93 -356 0
142 -357 0
174 -357 0
-227 -357 0
293 -358 0
290 -358 0
256 -358 0
268 -358 0
357 -359 0
358 -359 0
359 -360 0
-93 -360 0
356 360 -361 0
2 -362 0
-46 -362 0
-91 -362 0
124 -362 0
131 -362 0
234 -362 0
362 -363 0
276 -363 0
363 -364 0
86 -364 0
-46 -365 0
131 -365 0
366 -367 0
367 -368 0
-131 -368 0
365 368 -369 0
91 -370 0
125 -370 0
-234 -370 0
369 -372 0
370 -372 0
371 -372 0
372 -374 0
373 -374 0
374 -375 0
-86 -375 0
364 375 -376 0
123 -377 0
-215 -377 0
361 -378 0
376 -378 0
377 -378 0
378 -379 0
224 -379 0
123 -380 0
174 -380 0
272 -381 0
380 -381 0
290 -381 0
381 -382 0
293 -382 0
382 -383 0
142 -383 0
266 -384 0
322 -384 0
323 -384 0
384 -385 0
301 -385 0
385 -386 0
-142 -386 0
383 386 -387 0
125 -388 0
215 -388 0
276 -389 0
389 -390 0
-215 -390 0
388 390 -391 0
2 -392 0
-46 -392 0
86 -392 0
-91 -392 0
124 -392 0
131 -392 0
391 -393 0
392 -393 0
393 -394 0
234 -394 0
-86 -395 0
91 -395 0
125 -395 0
373 -397 0
371 -397 0
396 -397 0
369 -398 0
395 -398 0
397 -398 0
398 -399 0
-234 -399 0
394 399 -400 0
387 -401 0
400 -401 0
401 -402 0
-224 -402 0
379 402 -403 0
7 -404 0
10 -404 0
-17 -404 0
-23 -404 0
25 -404 0
-40 -404 0
-45 -404 0
47 -404 0
55 -404 0
-58 -404 0
-69 -404 0
-75 -404 0
76 -404 0
-79 -404 0
-82 -404 0
94 -404 0
95 -404 0
96 -404 0
-100 -404 0
102 -404 0
-105 -404 0
106 -404 0
-111 -404 0
139 -404 0
-145 -404 0
152 -404 0
-170 -404 0
-175 -404 0
-179 -404 0
196 -404 0
197 -404 0
-213 -404 0
-217 -404 0
-221 -404 0
222 -404 0
238 -404 0
239 -404 0
337 -405 0
338 -405 0
339 -405 0
340 -405 0
341 -405 0
342 -405 0
403 -406 0
335 -406 0
404 -406 0
405 -406 0
406 -407 0
-19 -407 0
114 -409 0
-132 -409 0
-212 -409 0
408 -411 0
410 -411 0
191 -420 0
251 -421 0
251 -422 0
251 -423 0
251 -424 0
251 -425 0
-17 -426 0
-213 -426 0
238 -426 0
426 -427 0
46 -427 0
-213 -429 0
428 -429 0
429 -430 0
238 -430 0
17 -432 0
431 -432 0
432 -433 0
-238 -433 0
430 433 -434 0
434 -435 0
-46 -435 0
427 435 -436 0
436 -437 0
266 -437 0
437 -439 0
438 -439 0
439 -440 0
7 -440 0
-17 -441 0
40 -441 0
-213 -441 0
-227 -441 0
238 -441 0
241 -441 0
366 -442 0
256 -442 0
441 -443 0
442 -443 0
443 -444 0
-7 -444 0
440 444 -445 0
338 -446 0
446 -447 0
196 -447 0
143 -448 0
-196 -448 0
447 448 -449 0
25 -450 0
94 -450 0
451 -452 0
452 -453 0
-94 -453 0
450 453 -454 0
-45 -455 0
55 -455 0
-145 -455 0
222 -455 0
373 -457 0
456 -457 0
449 -458 0
322 -458 0
454 -458 0
455 -458 0
457 -458 0
458 -459 0
339 -459 0
459 -460 0
95 -460 0
222 -461 0
132 -461 0
462 -463 0
463 -464 0
-132 -464 0
461 464 -465 0
465 -466 0
338 -466 0
466 -467 0
196 -467 0
143 -468 0
456 -468 0
462 -468 0
468 -469 0
-196 -469 0
467 469 -470 0
2 -471 0
45 -471 0
-55 -471 0
-94 -471 0
174 -471 0
451 -472 0
290 -472 0
470 -473 0
471 -473 0
472 -473 0
473 -474 0
145 -474 0
454 -475 0
-45 -475 0
475 -476 0
55 -476 0
25 -477 0
-45 -477 0
477 -478 0
94 -478 0
451 -480 0
479 -480 0
480 -481 0
-94 -481 0
478 481 -482 0
482 -483 0
-55 -483 0
476 483 -484 0
484 -485 0
449 -485 0
322 -485 0
222 -485 0
456 -485 0
485 -486 0
373 -486 0
486 -487 0
-145 -487 0
474 487 -488 0
488 -489 0
-119 -489 0
489 -490 0
-95 -490 0
460 490 -491 0
445 -492 0
491 -492 0
492 -493 0
47 -493 0
-241 -494 0
261 -494 0
494 -495 0
138 -495 0
-227 -496 0
241 -496 0
261 -497 0
497 -498 0
-241 -498 0
496 498 -499 0
499 -500 0
-138 -500 0
495 500 -501 0
-132 -502 0
338 -502 0
502 -503 0
196 -503 0
143 -504 0
456 -504 0
504 -505 0
-196 -505 0
503 505 -506 0
-213 -507 0
238 -507 0
431 -508 0
508 -509 0
-238 -509 0
507 509 -510 0
2 -511 0
7 -511 0
17 -511 0
45 -511 0
-46 -511 0
-55 -511 0
-94 -511 0
-95 -511 0
-119 -511 0
145 -511 0
-155 -511 0
174 -511 0
-222 -511 0
438 -512 0
451 -512 0
290 -512 0
501 -513 0
506 -513 0
510 -513 0
511 -513 0
512 -513 0
513 -514 0
-47 -514 0
493 514 -515 0
96 -516 0
100 -516 0
-221 -516 0
516 -518 0
517 -518 0
518 -519 0
69 -519 0
-221 -521 0
520 -521 0
521 -522 0
96 -522 0
-100 -524 0
523 -524 0
524 -525 0
-96 -525 0
522 525 -526 0
526 -527 0
76 -527 0
527 -528 0
-69 -528 0
519 528 -529 0
-75 -530 0
-105 -530 0
106 -530 0
-170 -530 0
-175 -530 0
-224 -530 0
515 -531 0
529 -531 0
530 -531 0
531 -532 0
239 -532 0
470 -533 0
75 -533 0
449 -534 0
222 -534 0
456 -534 0
534 -535 0
-75 -535 0
533 535 -536 0
2 -537 0
105 -537 0
537 -538 0
175 -538 0
539 -540 0
373 -540 0
540 -541 0
-175 -541 0
538 541 -542 0
536 -543 0
542 -543 0
-224 -543 0
543 -544 0
106 -544 0
222 -545 0
-224 -545 0
545 -546 0
132 -546 0
-224 -547 0
222 -547 0
275 -548 0
548 -549 0
-222 -549 0
547 549 -550 0
550 -551 0
-132 -551 0
546 551 -552 0
552 -553 0
196 -553 0
550 -554 0
456 -554 0
554 -555 0
-196 -555 0
553 555 -556 0
556 -557 0
75 -557 0
456 -559 0
558 -559 0
545 -560 0
559 -560 0
560 -561 0
-75 -561 0
557 561 -562 0
2 -563 0
105 -563 0
143 -563 0
175 -563 0
562 -564 0
563 -564 0
564 -565 0
-106 -565 0
544 565 -566 0
119 -567 0
170 -567 0
339 -568 0
568 -569 0
-170 -569 0
567 569 -570 0
-45 -571 0
55 -571 0
-145 -571 0
566 -572 0
570 -572 0
322 -572 0
454 -572 0
571 -572 0
572 -573 0
95 -573 0
-224 -575 0
574 -575 0
575 -577 0
456 -577 0
558 -577 0
576 -577 0
577 -578 0
222 -578 0
-224 -579 0
106 -579 0
275 -580 0
580 -581 0
-106 -581 0
579 581 -582 0
-132 -583 0
196 -583 0
456 -584 0
584 -585 0
-196 -585 0
583 585 -586 0
582 -587 0
586 -587 0
75 -587 0
587 -588 0
-222 -588 0
578 588 -589 0
589 -590 0
143 -590 0
465 -591 0
75 -591 0
222 -592 0
456 -592 0
592 -593 0
-75 -593 0
591 593 -594 0
106 -595 0
196 -595 0
-224 -595 0
594 -596 0
595 -596 0
596 -597 0
-143 -597 0
590 597 -598 0
2 -599 0
105 -599 0
-145 -599 0
598 -600 0
484 -600 0
322 -600 0
599 -600 0
600 -601 0
175 -601 0
451 -602 0
290 -602 0
470 -603 0
471 -603 0
602 -603 0
603 -604 0
576 -604 0
604 -605 0
145 -605 0
536 -606 0
484 -606 0
322 -606 0
606 -607 0
373 -607 0
607 -608 0
-145 -608 0
605 608 -609 0
106 -610 0
-224 -610 0
609 -611 0
610 -611 0
611 -612 0
539 -612 0
612 -613 0
-175 -613 0
601 613 -614 0
-119 -615 0
614 -616 0
615 -616 0
616 -617 0
-95 -617 0
573 617 -618 0
445 -619 0
618 -619 0
619 -620 0
47 -620 0
582 -621 0
143 -621 0
610 -622 0
-143 -622 0
621 622 -623 0
623 -624 0
-132 -624 0
624 -625 0
196 -625 0
582 -626 0
143 -626 0
626 -627 0
456 -627 0
627 -628 0
-196 -628 0
625 628 -629 0
2 -630 0
75 -630 0
105 -630 0
-145 -630 0
629 -631 0
322 -631 0
482 -631 0
630 -631 0
631 -632 0
175 -632 0
2 -633 0
45 -633 0
-94 -633 0
174 -633 0
451 -634 0
290 -634 0
633 -635 0
634 -635 0
635 -636 0
576 -636 0
636 -637 0
145 -637 0
482 -638 0
322 -638 0
75 -638 0
638 -639 0
373 -639 0
639 -640 0
-145 -640 0
637 640 -641 0
506 -642 0
641 -642 0
610 -642 0
642 -643 0
539 -643 0
643 -644 0
-175 -644 0
632 644 -645 0
7 -646 0
17 -646 0
-46 -646 0
-55 -646 0
-95 -646 0
-119 -646 0
-155 -646 0
-222 -646 0
645 -647 0
510 -647 0
499 -647 0
646 -647 0
438 -647 0
647 -648 0
-47 -648 0
620 648 -649 0
-69 -650 0
76 -650 0
-96 -650 0
-100 -650 0
649 -651 0
650 -651 0
523 -651 0
651 -652 0
-239 -652 0
532 652 -653 0
-4 -654 0
-10 -654 0
23 -654 0
34 -654 0
-78 -654 0
-79 -654 0
-82 -654 0
93 -654 0
-102 -654 0
-123 -654 0
125 -654 0
-131 -654 0
-139 -654 0
-142 -654 0
-153 -654 0
179 -654 0
197 -654 0
217 -654 0
233 -654 0
410 -656 0
327 -656 0
342 -656 0
655 -656 0
340 -656 0
653 -657 0
654 -657 0
656 -657 0
657 -658 0
425 658 -659 0
58 -660 0
-114 -660 0
-215 -660 0
659 -661 0
660 -661 0
661 -662 0
424 662 -663 0
-111 -664 0
663 -665 0
664 -665 0
665 -666 0
251 -667 0
666 667 -668 0
668 -669 0
21 -669 0
251 -670 0
671 -672 0
672 -673 0
82 -673 0
197 -674 0
-82 -674 0
673 674 -675 0
40 -676 0
76 -676 0
78 -676 0
207 -676 0
-233 -676 0
675 -677 0
676 -677 0
677 -678 0
79 -678 0
-82 -679 0
197 -679 0
335 -680 0
679 -680 0
680 -681 0
517 -681 0
438 -681 0
681 -682 0
-79 -682 0
678 682 -683 0
436 -684 0
266 -684 0
683 -684 0
684 -685 0
7 -685 0
76 -686 0
78 -686 0
207 -686 0
-233 -686 0
675 -687 0
686 -687 0
687 -688 0
79 -688 0
335 -689 0
679 -689 0
689 -690 0
517 -690 0
690 -691 0
-79 -691 0
688 691 -692 0
366 -693 0
256 -693 0
692 -694 0
441 -694 0
693 -694 0
694 -695 0
-7 -695 0
685 695 -696 0
341 -697 0
697 -698 0
10 -698 0
34 -699 0
-10 -699 0
698 699 -700 0
-4 -701 0
93 -701 0
96 -701 0
100 -701 0
-102 -701 0
-123 -701 0
-139 -701 0
-142 -701 0
-153 -701 0
217 -701 0
-221 -701 0
-224 -701 0
696 -702 0
322 -702 0
700 -702 0
701 -702 0
702 -703 0
69 -703 0
264 -704 0
93 -704 0
-227 -705 0
256 -705 0
705 -706 0
-93 -706 0
704 706 -707 0
123 -708 0
174 -708 0
-241 -708 0
275 -709 0
290 -709 0
707 -710 0
708 -710 0
709 -710 0
710 -711 0
293 -711 0
711 -712 0
142 -712 0
266 -713 0
307 -713 0
322 -713 0
323 -713 0
713 -714 0
-142 -714 0
712 714 -715 0
7 -716 0
10 -716 0
-17 -716 0
-40 -716 0
-79 -716 0
-82 -716 0
96 -716 0
-100 -716 0
139 -716 0
197 -716 0
-213 -716 0
-221 -716 0
238 -716 0
341 -717 0
366 -717 0
337 -717 0
715 -718 0
335 -718 0
716 -718 0
717 -718 0
718 -720 0
719 -720 0
720 -721 0
102 -721 0
40 -722 0
78 -722 0
82 -722 0
207 -722 0
-233 -722 0
722 -723 0
671 -723 0
723 -724 0
79 -724 0
335 -725 0
679 -725 0
725 -726 0
438 -726 0
726 -727 0
-79 -727 0
724 727 -728 0
7 -729 0
10 -729 0
96 -729 0
-100 -729 0
123 -729 0
139 -729 0
174 -729 0
-221 -729 0
-241 -729 0
341 -730 0
275 -730 0
337 -730 0
290 -730 0
436 -731 0
728 -731 0
707 -731 0
729 -731 0
730 -731 0
731 -732 0
293 -732 0
732 -733 0
142 -733 0
40 -734 0
78 -734 0
207 -734 0
-233 -734 0
675 -735 0
734 -735 0
735 -736 0
79 -736 0
335 -737 0
679 -737 0
737 -738 0
438 -738 0
738 -739 0
-79 -739 0
736 739 -740 0
436 -741 0
266 -741 0
740 -741 0
741 -742 0
7 -742 0
78 -743 0
207 -743 0
-233 -743 0
675 -744 0
743 -744 0
744 -745 0
79 -745 0
335 -746 0
679 -746 0
746 -747 0
-79 -747 0
745 747 -748 0
366 -749 0
256 -749 0
748 -750 0
441 -750 0
749 -750 0
750 -751 0
-7 -751 0
742 751 -752 0
10 -753 0
96 -753 0
-100 -753 0
-221 -753 0
307 -754 0
753 -754 0
341 -754 0
754 -755 0
337 -755 0
755 -756 0
139 -756 0
-4 -757 0
-123 -757 0
-224 -757 0
526 -758 0
700 -758 0
757 -758 0
758 -759 0
-139 -759 0
756 759 -760 0
93 -761 0
-153 -761 0
752 -762 0
760 -762 0
322 -762 0
761 -762 0
762 -763 0
-142 -763 0
733 763 -764 0
764 -765 0
217 -765 0
765 -766 0
-102 -766 0
721 766 -767 0
767 -768 0
76 -768 0
768 -769 0
-69 -769 0
703 769 -770 0
-132 -771 0
114 -771 0
456 -772 0
772 -773 0
-114 -773 0
771 773 -774 0
47 -775 0
-75 -775 0
-105 -775 0
106 -775 0
-170 -775 0
-175 -775 0
222 -775 0
338 -776 0
339 -776 0
373 -776 0
770 -777 0
774 -777 0
775 -777 0
776 -777 0
777 -778 0
239 -778 0
2 -779 0
-10 -779 0
34 -779 0
105 -779 0
779 -780 0
175 -780 0
700 -781 0
539 -781 0
373 -781 0
781 -782 0
-175 -782 0
780 782 -783 0
594 -784 0
783 -784 0
-224 -784 0
784 -785 0
338 -785 0
785 -786 0
106 -786 0
552 -787 0
75 -787 0
545 -788 0
456 -788 0
788 -789 0
-75 -789 0
787 789 -790 0
2 -791 0
-10 -791 0
34 -791 0
105 -791 0
143 -791 0
175 -791 0
790 -792 0
791 -792 0
792 -793 0
-106 -793 0
786 793 -794 0
-4 -795 0
47 -795 0
-69 -795 0
76 -795 0
93 -795 0
-96 -795 0
-100 -795 0
-102 -795 0
-114 -795 0
-123 -795 0
-139 -795 0
-142 -795 0
-153 -795 0
217 -795 0
752 -796 0
794 -796 0
322 -796 0
570 -796 0
795 -796 0
523 -796 0
796 -797 0
-239 -797 0
778 797 -798 0
23 -799 0
125 -799 0
-131 -799 0
-145 -799 0
179 -799 0
410 -800 0
342 -800 0
655 -800 0
340 -800 0
798 -801 0
454 -801 0
799 -801 0
800 -801 0
801 -802 0
670 802 -803 0
-45 -804 0
55 -804 0
58 -804 0
95 -804 0
-111 -804 0
196 -804 0
-215 -804 0
803 -805 0
804 -805 0
805 -806 0
-21 -806 0
-86 -808 0
91 -808 0
-154 -808 0
-234 -808 0
807 -809 0
-124 -819 0
-191 -821 0
822 -823 0
251 -824 0
251 -827 0
-245 -829 0
-181 -831 0
251 -834 0
251 -837 0
-1 0
-3 0
-5 0
-6 0
8 0
-11 0
-12 0
13 0
-14 0
-15 0
-16 0
-18 0
20 0
24 0
-26 0
-27 0
-28 0
29 0
-30 0
31 0
-32 0
33 0
-35 0
-36 0
37 0
38 0
39 0
-41 0
42 0
-43 0
-44 0
-48 0
49 0
50 0
51 0
52 0
-53 0
54 0
56 0
57 0
59 0
-60 0
61 0
-62 0
63 0
-64 0
65 0
66 0
67 0
68 0
-70 0
-71 0
73 0
-74 0
77 0
81 0
83 0
84 0
-85 0
87 0
-88 0
89 0
-90 0
-92 0
-97 0
99 0
-101 0
103 0
-104 0
107 0
108 0
109 0
-110 0
113 0
115 0
116 0
117 0
-118 0
120 0
-121 0
-122 0
126 0
-127 0
-128 0
-129 0
-133 0
134 0
135 0
136 0
-137 0
-140 0
141 0
144 0
-146 0
-147 0
148 0
-149 0
-150 0
151 0
-157 0
158 0
-159 0
-160 0
-161 0
-162 0
163 0
-164 0
-165 0
166 0
168 0
-169 0
172 0
-173 0
176 0
177 0
178 0
-180 0
182 0
-183 0
-184 0
185 0
186 0
-187 0
-189 0
-190 0
-193 0
195 0
199 0
200 0
-201 0
202 0
203 0
-204 0
205 0
208 0
209 0
210 0
-211 0
-214 0
216 0
218 0
-219 0
-220 0
225 0
-226 0
-228 0
229 0
230 0
231 0
-232 0
-235 0
236 0
-237 0
240 0
-242 0
-244 0
-246 0
247 0
248 0
-249 0
-250 0
171 837 0
-832 833 0
-830 831 0
-828 829 0
223 827 0
167 824 0
-820 821 0
-167 823 0
-819 820 0
-817 818 0
-815 816 0
-812 813 0
-811 813 0
-808 809 0
154 808 0
-807 809 0
-805 806 0
-804 805 0
-802 803 0
-801 802 0
-800 801 0
-798 801 0
-796 797 0
-795 796 0
-794 796 0
-792 793 0
-790 792 0
-789 790 0
-788 789 0
-785 786 0
-783 784 0
-782 783 0
-774 777 0
-775 777 0
-772 773 0
-770 777 0
-767 768 0
-760 762 0
-756 760 0
-755 756 0
-754 755 0
-753 754 0
-751 752 0
-749 750 0
-746 747 0
-745 748 0
-742 752 0
-741 742 0
-738 739 0
-733 764 0
-732 733 0
-726 727 0
-725 726 0
-836 838 0
-723 724 0
-716 718 0
-715 718 0
-713 714 0
-712 715 0
-818 820 0
-709 710 0
-708 710 0
-707 710 731 0
-706 707 0
-704 707 0
-702 703 0
-700 702 758 781 0
-699 700 0
-697 698 0
-695 696 0
-694 695 0
-693 694 0
-691 692 0
-689 690 0
-688 692 0
-686 687 0
-685 696 0
-682 683 0
-681 682 0
-680 681 0
-679 680 689 725 737 746 0
-677 678 0
-675 677 687 735 744 0
-82 673 722 0
-672 673 0
-671 672 723 0
-21 669 0
-660 661 0
-656 657 0
152 655 0
-654 657 0
-217 654 701 719 765 795 0
139 654 701 759 795 0
102 654 701 766 795 0
-23 654 799 0
-673 675 0
10 654 699 779 791 0
-653 657 0
-748 750 0
-652 653 0
-651 652 0
-650 651 0
-649 651 0
-647 648 0
-644 645 0
-643 644 0
-641 642 0
-640 641 0
-636 637 0
-635 636 0
-727 728 0
-634 635 0
-633 635 0
-632 645 0
-631 632 0
-626 627 0
-625 629 0
-622 623 0
-621 623 0
-620 649 0
-829 830 0
-617 618 0
-616 617 0
-615 616 0
-614 616 0
-826 828 0
-613 614 0
-705 706 0
-612 613 0
-610 611 622 642 0
-609 611 0
-608 609 0
-606 607 0
-604 605 0
-600 601 0
-598 600 0
-594 596 784 0
-593 594 0
-591 594 0
-590 598 0
-589 590 0
-585 586 0
-583 586 0
-582 587 621 626 0
-581 582 0
-580 581 0
-797 798 0
-576 577 604 636 0
-683 684 0
-575 577 0
-574 575 0
-784 785 0
-572 573 0
-571 572 0
-568 569 0
206 667 0
-567 570 0
-170 567 0
-566 572 0
-565 566 0
-564 565 0
-563 564 0
-562 564 0
-561 562 0
-773 774 0
-560 561 0
-771 774 0
-559 560 0
-558 559 577 0
-556 557 0
-766 767 0
-551 552 0
-720 721 0
-550 551 554 0
-719 720 0
-549 550 0
-721 767 0
-546 552 0
-545 546 560 788 0
-544 566 0
-762 763 0
-542 543 0
-541 542 0
-540 541 0
-539 540 612 643 781 0
-175 538 563 601 632 780 791 0
-537 538 0
-535 536 0
-534 535 0
-533 536 0
-531 532 0
-530 531 0
-529 531 0
-527 528 0
-736 740 0
-523 524 651 796 0
-740 741 0
-522 526 0
-519 529 0
-69 519 703 0
-518 519 0
-743 744 0
-517 518 681 690 0
-100 516 520 701 0
-514 515 0
47 514 648 0
-601 614 0
-512 513 0
-510 513 647 0
-509 510 0
-507 510 0
-506 513 642 0
-505 506 0
239 652 797 0
-503 506 0
-502 503 0
-501 513 0
-718 720 0
-500 501 0
-499 500 647 0
-498 499 0
-497 498 0
-496 499 0
114 660 773 795 0
-493 515 0
-536 543 606 0
-344 345 0
-724 728 0
112 342 0
-341 343 405 697 717 730 754 0
-623 624 0
-4 337 0
-485 486 0
-105 537 539 563 599 630 779 791 0
4 337 654 701 757 795 0
-470 473 533 603 0
-791 792 0
-570 572 796 0
-336 344 0
-639 640 0
175 336 404 530 541 613 644 775 782 0
-737 738 0
-384 385 0
-729 731 0
-239 336 404 532 778 0
-238 336 404 426 430 441 507 716 0
-416 417 0
-448 449 0
-222 336 404 455 461 462 485 534 545 547 578 592 775 0
217 336 404 719 0
-125 273 276 285 316 370 388 395 654 799 0
-701 702 0
-557 562 0
-703 770 0
-553 556 0
-362 363 0
188 336 0
-602 603 0
-96 336 404 516 522 701 716 729 753 0
-627 628 0
170 336 404 530 569 615 646 775 0
-78 330 676 686 722 734 743 0
-780 783 0
-674 675 0
75 336 404 530 535 561 576 593 775 789 0
-457 458 0
-40 438 441 676 722 734 0
-468 469 0
-833 835 0
-9 340 0
-759 760 0
-278 279 0
-131 336 362 365 392 0
-648 649 0
-778 798 0
-692 694 0
-215 274 281 303 313 388 396 0
-735 736 0
207 327 0
-624 625 0
-106 336 404 530 544 574 579 595 610 775 786 0
-102 336 404 721 0
100 336 404 520 524 650 716 729 753 795 0
-94 336 404 450 478 0
-803 805 0
-274 279 0
91 336 362 392 0
-86 336 364 392 0
93 271 360 706 0
-687 688 0
82 336 404 654 674 679 716 0
79 336 404 654 682 691 716 727 739 747 0
-10 336 404 698 716 729 753 0
-368 369 0
179 336 404 0
-618 619 0
-769 770 0
-555 556 0
69 336 404 528 650 769 795 0
-343 344 0
58 336 404 0
-730 731 0
-47 336 404 493 620 775 795 0
-630 631 0
45 336 404 455 475 477 479 571 804 0
119 339 489 511 615 646 0
-750 751 0
-330 333 0
221 336 404 516 521 523 701 716 729 753 0
-386 387 0
-763 764 0
-153 293 348 0
-75 533 557 576 587 591 630 638 787 0
-744 745 0
23 336 404 0
-710 711 0
-447 449 0
-139 336 404 716 729 756 0
17 336 404 426 428 441 716 0
234 286 317 370 399 808 0
-445 492 619 0
-684 685 0
-404 406 0
145 336 404 455 487 571 599 608 630 640 799 0
-261 262 494 497 0
-595 596 0
-389 390 0
-714 715 0
106 565 574 581 793 0
-337 343 405 717 730 755 0
-243 255 422 0
125 276 0
76 517 0
-272 292 381 0
-234 280 311 362 394 0
-408 411 0
-592 593 0
-277 278 0
94 453 471 481 511 633 0
-587 588 0
-467 470 0
143 338 597 622 0
-25 336 404 450 451 477 0
-295 326 0
-143 338 448 468 504 563 590 621 626 791 0
-276 277 308 363 389 0
-271 272 0
-309 310 0
-224 275 379 0
-426 427 0
-273 274 302 0
-303 310 0
-287 292 0
-662 663 0
-538 542 0
-435 436 0
-346 347 0
-659 661 0
-433 434 0
-156 290 321 0
224 273 275 281 306 312 402 530 543 545 547 575 579 595 610 701 757 784 0
-532 653 0
7 444 695 751 0
-328 329 0
-578 589 0
-383 387 0
-528 529 0
-123 288 301 305 377 380 708 729 0
-466 467 0
215 278 283 309 314 377 390 396 660 804 0
-757 758 0
-34 341 654 699 779 791 0
-696 702 0
-629 631 0
241 265 268 494 498 708 729 0
-302 303 0
-269 270 0
-307 308 314 713 754 0
-267 272 0
-373 374 397 457 486 540 607 639 776 781 0
155 256 263 511 646 0
-813 814 0
-483 484 0
-285 286 0
-93 267 323 356 654 701 704 761 795 0
-816 817 0
156 290 0
227 257 259 261 270 357 441 496 705 0
-747 748 0
-91 370 395 808 0
-266 267 324 355 384 437 684 713 741 0
-22 254 421 0
-335 344 406 680 689 718 725 737 746 0
-761 762 0
-179 654 799 0
-642 643 0
-814 815 0
-95 336 404 460 573 804 0
-286 287 0
-430 434 0
-584 585 0
213 336 404 426 429 431 441 507 716 0
-112 342 0
-310 311 0
-779 780 0
-270 271 0
-471 473 603 0
-619 620 0
-334 335 0
-406 407 0
-711 712 0
-810 811 0
-283 284 0
-482 483 631 638 0
-396 397 0
-432 433 0
-279 280 0
-390 391 0
-481 482 0
-573 618 0
-599 600 0
-332 333 0
-260 262 277 282 297 304 319 331 367 389 446 452 463 480 497 508 540 548 568 580 584 672 697 772 0
-299 300 0
-579 582 0
142 325 351 386 654 701 714 763 795 0
-72 336 0
-258 266 0
-317 318 0
9 340 0
-292 294 0
-326 344 0
-241 258 268 441 496 0
-155 256 259 0
-392 393 0
-327 328 331 656 0
-676 677 0
-263 264 0
-268 269 358 0
46 336 362 365 366 392 435 511 646 0
-304 305 0
-264 265 704 0
-265 266 0
-288 292 0
-257 258 0
-690 691 0
-508 509 0
-111 289 298 0
-197 336 404 654 671 674 679 716 0
-290 291 319 347 349 358 381 472 512 602 634 709 730 0
-731 732 0
174 321 0
-339 343 405 459 568 776 0
-291 292 0
-637 641 0
-207 327 330 676 686 722 734 743 0
-374 375 0
-453 454 0
-787 790 0
-80 296 0
-256 257 269 358 442 693 705 749 0
-119 339 567 0
-293 294 358 382 711 732 0
-645 647 0
-294 295 0
-142 295 346 350 357 383 712 733 0
-359 360 0
-809 810 0
-391 393 0
-282 283 0
-152 336 404 655 0
-227 261 0
123 301 306 654 701 757 795 0
-300 324 0
-638 639 0
-311 318 0
96 525 650 795 0
-323 324 384 713 0
-603 604 0
-296 297 0
-313 315 0
-138 495 0
-275 277 282 304 548 580 709 730 0
-378 379 0
-513 514 0
-314 315 0
-717 718 0
-298 300 0
-315 316 0
-385 386 0
-586 587 0
-320 322 0
-178 418 808 0
-655 656 800 0
-516 518 0
-318 324 0
-319 320 0
-306 307 0
-321 322 0
-322 324 351 384 458 485 572 600 606 631 638 702 713 762 796 0
-58 660 804 0
-324 325 0
-806 807 0
-388 391 0
90 409 819 0
78 328 332 654 0
-233 329 654 0
-657 658 0
-130 423 0
-329 335 0
-124 336 362 371 392 0
-331 332 0
-333 334 0
-588 589 0
-475 476 0
-316 317 0
-521 522 0
-55 336 404 455 476 571 804 0
-525 526 0
-308 309 0
-2 336 362 373 392 471 511 537 563 599 630 633 779 791 0
-348 354 0
-666 668 0
-350 352 0
-442 443 0
196 448 469 505 555 558 585 628 0
-223 826 0
-284 285 0
-476 484 0
-663 665 0
-347 348 0
-436 437 684 731 741 0
-668 669 0
-543 544 0
-352 353 0
-665 666 0
-349 350 0
-437 439 0
-353 354 0
-192 410 0
-351 352 0
-441 443 694 750 0
-831 832 0
-646 647 0
-45 471 479 511 633 0
-764 765 0
-354 355 0
-758 759 0
-377 378 0
-427 436 0
-355 356 0
-281 284 0
-393 394 0
-19 345 0
-357 359 0
-407 408 0
-358 359 0
197 671 0
-552 553 787 0
-360 361 0
-768 769 0
-554 555 0
-361 378 0
-364 376 0
-46 366 427 0
-366 367 442 693 717 749 0
-367 368 0
131 368 654 799 0
-458 459 0
-369 372 398 0
-370 372 0
-262 263 0
-371 372 397 0
-372 374 0
-312 313 0
2 373 0
-259 264 0
86 375 395 808 0
-375 376 0
-376 378 0
-515 531 0
-504 505 0
-486 487 0
-380 381 0
-462 463 468 0
-79 678 688 724 736 745 0
-381 382 0
-569 570 0
-382 383 0
153 293 323 353 654 701 761 795 0
-394 400 0
-395 398 0
-597 598 0
-397 398 0
-398 399 0
-399 400 0
-474 488 0
-400 401 0
-401 402 0
-487 488 0
95 490 511 617 646 0
-405 406 0
-365 369 0
-478 482 0
34 341 0
-418 419 0
-526 527 758 0
-577 578 0
-411 412 0
-728 731 0
-174 288 320 346 349 357 380 471 511 633 708 729 0
-17 428 432 511 646 0
-196 336 404 447 467 503 553 558 583 595 625 804 0
-356 361 0
-456 457 468 485 504 534 554 559 577 584 592 627 772 788 0
-628 629 0
-492 493 0
233 334 676 686 722 734 743 0
-415 416 0
-198 425 670 0
-446 447 0
-734 735 0
-325 326 0
-765 766 0
-547 550 0
-305 307 0
-412 413 0
-596 597 0
-495 501 0
-403 406 0
-459 460 0
-114 409 771 0
-520 521 0
-117 409 812 0
-739 740 0
-524 525 0
-786 794 0
212 409 0
-752 762 796 0
-658 659 0
-431 432 508 0
-465 466 591 0
132 409 456 464 502 551 583 624 771 0
-548 549 0
-363 364 0
-439 440 0
-678 683 0
-289 291 0
-607 608 0
-409 411 0
-338 343 405 446 466 502 776 785 0
192 410 0
-511 513 0
-413 415 0
-455 458 0
-835 836 0
-297 298 0
-158 414 0
-823 825 0
-611 612 0
-494 495 0
-793 794 0
105 336 404 530 539 775 0
-417 419 0
-449 458 485 534 0
-419 420 0
-605 609 0
-280 287 0
-484 485 600 606 0
-428 429 0
-698 700 0
-477 478 0
124 371 819 0
-429 430 0
-387 401 0
-473 474 0
-213 431 0
-722 723 0
238 433 509 0
-438 439 512 647 681 726 738 0
194 834 0
-440 445 0
-443 444 0
40 336 404 438 716 0
-444 445 0
-450 454 0
25 451 0
-451 452 472 480 512 602 634 0
-776 777 0
-452 453 0
-777 778 0
-454 458 475 572 801 0
-664 665 0
-7 336 404 440 511 646 685 716 729 742 0
55 471 483 511 646 0
-661 662 0
-434 435 0
-132 456 461 546 0
-460 491 0
-461 465 0
222 462 511 549 588 646 0
-781 782 0
-76 336 404 517 527 650 676 686 768 795 0
-463 464 0
-464 465 0
-469 470 0
-472 473 0
-145 474 511 605 637 0
-479 480 0
-799 801 0
-221 523 0
-480 481 0
-379 403 0
-488 489 0
-402 403 0
-98 424 0
-489 490 0
-301 302 312 385 0
-490 491 0
-491 492 0
